69 98 78 73 79 7 8 46 6 60 55 
90 81 94 96 
84 85 63 89 76 56 
61 42 44 43 40 39 41 
99 52 57 74 86 53 
64 51 19 49 20 66 
92 95 62 50 34 93 80 
83 77 25 23 21 18 48 22 24 
82 12 14 47 17 16 15 13 11 10 
88 2 4 45 5 3 1 100 70 68 
67 31 29 27 26 28 30 32 33 91 
65 59 58 75 97 87 9 
71 72 35 36 37 38 54 
